53688
7 40 1176
40 51 1042
51 37 590
37 5 467
5 13 723
13 43 790
43 3 1096
3 6 385
6 28 404
28 55 487
55 26 397
26 49 560
49 53 1489
53 34 396
34 54 401
54 47 491
47 30 944
30 4 380
4 18 606
18 12 768
12 9 723
9 14 471
14 2 433
2 42 1722
42 33 4807
33 1 7621
1 27 4123
27 31 4460
31 25 299
25 11 545
11 45 436
45 52 722
52 16 739
16 15 556
15 36 679
36 46 402
46 39 214
39 10 941
10 22 117
22 29 544
29 21 516
21 23 176
23 17 619
17 48 415
48 19 897
19 41 1369
41 32 362
32 44 676
44 8 383
8 38 368
38 35 988
35 24 296
24 50 868
50 20 763
20 7 846
